* ENCODING=ISO-8859-1
NAME          CPLEX
ROWS
 N  obj1    
 G  c1      
 G  c2      
 G  c3      
 G  c4      
 G  c5      
 G  c6      
 G  c7      
 G  c8      
 G  c9      
 G  c10     
 G  c11     
 G  c12     
 G  c13     
 G  c14     
 G  c15     
 G  c16     
 G  c17     
 G  c18     
 G  c19     
 G  c20     
 G  c21     
 G  c22     
 G  c23     
 G  c24     
 G  c25     
 G  c26     
 G  c27     
 G  c28     
 G  c29     
 G  c30     
 G  c31     
 G  c32     
 G  c33     
 G  c34     
 G  c35     
 G  c36     
 G  c37     
 G  c38     
 G  c39     
 G  c40     
COLUMNS
    MARK0000  'MARKER'                 'INTORG'
    x1        obj1                            1
    x1        c7                            111
    x1        c10                           574
    x1        c25                           661
    x1        c26                           494
    x2        obj1                            1
    x2        c1                            601
    x2        c12                           427
    x2        c13                           110
    x2        c15                           883
    x2        c20                           700
    x2        c21                           199
    x2        c26                           168
    x3        obj1                            1
    x3        c2                            620
    x3        c27                           186
    x3        c34                           526
    x4        obj1                            1
    x4        c11                           256
    x4        c13                           357
    x4        c40                           505
    x5        obj1                            1
    x5        c8                            408
    x5        c12                           177
    x5        c23                           512
    x5        c36                           711
    x6        obj1                            1
    x6        c5                            449
    x6        c26                           418
    x6        c32                           121
    x6        c39                           486
    x7        obj1                            1
    x7        c2                            874
    x7        c14                           107
    x7        c19                           485
    x7        c28                           270
    x8        obj1                            1
    x8        c5                            756
    x8        c8                            902
    x8        c22                           799
    x8        c27                           486
    x8        c33                           147
    x9        obj1                            1
    x9        c35                           710
    x9        c38                           940
    x10       obj1                            1
    x10       c8                            640
    x10       c30                           663
    x11       obj1                            1
    x11       c14                           968
    x12       obj1                            1
    x12       c8                            779
    x12       c16                           895
    x12       c20                           843
    x12       c26                           949
    x12       c27                           847
    x12       c33                           861
    x13       obj1                            1
    x13       c21                           969
    x13       c30                           863
    x14       obj1                            1
    x14       c13                           982
    x14       c29                           197
    x14       c39                           708
    x15       obj1                            1
    x15       c5                            821
    x15       c9                            221
    x15       c11                           281
    x15       c14                           486
    x15       c31                           565
    x15       c35                           489
    x16       obj1                            1
    x16       c11                           779
    x16       c14                           285
    x16       c21                           726
    x16       c23                           115
    x16       c24                           717
    x16       c39                           507
    x17       obj1                            1
    x17       c40                           811
    x18       obj1                            1
    x18       c7                            317
    x18       c8                            673
    x19       obj1                            1
    x19       c14                           762
    x19       c17                           635
    x19       c26                           353
    x19       c37                           529
    x19       c39                           126
    x20       obj1                            1
    x21       obj1                            1
    x21       c19                           680
    x21       c28                           273
    x22       obj1                            1
    x22       c24                           172
    x22       c29                           737
    x22       c40                           169
    x23       obj1                            1
    x23       c2                            713
    x23       c21                           463
    x23       c31                           512
    x23       c37                           921
    x23       c39                           156
    x24       obj1                            1
    x24       c3                            293
    x24       c16                           704
    x24       c29                           588
    x24       c32                           116
    x25       obj1                            1
    x25       c4                            311
    x26       obj1                            1
    x26       c4                            976
    x26       c10                           351
    x26       c15                           804
    x26       c39                           436
    x27       obj1                            1
    x27       c2                            831
    x27       c4                            613
    x27       c5                            609
    x27       c17                           295
    x27       c34                           341
    x27       c37                           632
    x27       c38                           937
    x27       c40                           665
    x28       obj1                            1
    x28       c3                            469
    x28       c6                            816
    x28       c9                            410
    x28       c28                           443
    x28       c29                           557
    x28       c32                           338
    x29       obj1                            1
    x29       c14                           139
    x29       c20                           952
    x29       c30                           672
    x30       obj1                            1
    x30       c2                            592
    x30       c6                            511
    x30       c23                           268
    x30       c37                           577
    x31       obj1                            1
    x31       c5                            251
    x31       c8                            731
    x31       c11                           495
    x31       c35                           248
    x32       obj1                            1
    x32       c15                           959
    x32       c17                           296
    x32       c28                           859
    x33       obj1                            1
    x33       c14                           194
    x33       c35                           136
    x33       c40                           668
    x34       obj1                            1
    x34       c11                           926
    x34       c18                           944
    x34       c25                           341
    x34       c32                           725
    x35       obj1                            1
    x35       c12                           770
    x35       c13                           107
    x35       c17                           300
    x35       c18                           534
    x35       c23                           122
    x35       c37                           714
    x36       obj1                            1
    x36       c22                           426
    x36       c40                           586
    x37       obj1                            1
    x38       obj1                            1
    x38       c19                           840
    x38       c28                           497
    x38       c36                           619
    x39       obj1                            1
    x39       c16                           877
    x39       c24                           422
    x39       c26                           855
    x39       c27                           616
    x40       obj1                            1
    x40       c4                            890
    x40       c25                           772
    x41       obj1                            1
    x41       c2                            776
    x41       c6                            901
    x41       c31                           740
    x42       obj1                            1
    x42       c10                           737
    x42       c18                           552
    x42       c24                           584
    x43       obj1                            1
    x43       c12                           675
    x43       c19                           273
    x44       obj1                            1
    x44       c2                            319
    x44       c10                           694
    x45       obj1                            1
    x45       c8                            809
    x45       c9                            799
    x45       c23                           467
    x45       c27                           908
    x46       obj1                            1
    x46       c2                            491
    x46       c5                            544
    x46       c17                           977
    x46       c32                           583
    x46       c34                           302
    x47       obj1                            1
    x47       c12                           307
    x47       c15                           602
    x47       c17                           147
    x47       c18                           107
    x47       c27                           586
    x47       c30                           149
    x47       c39                           123
    x48       obj1                            1
    x48       c3                            104
    x48       c11                           561
    x48       c19                           836
    x48       c29                           269
    x49       obj1                            1
    x49       c1                            990
    x49       c19                           837
    x49       c35                           770
    x49       c40                           648
    x50       obj1                            1
    x50       c5                            313
    x50       c18                           940
    x50       c22                           216
    x50       c24                           651
    x50       c38                           414
    x51       obj1                            1
    x51       c12                           928
    x51       c27                           234
    x52       obj1                            1
    x52       c8                            535
    x52       c17                           571
    x52       c19                           183
    x52       c30                           425
    x52       c32                           634
    x52       c34                           876
    x53       obj1                            1
    x53       c2                            720
    x54       obj1                            1
    x54       c1                            427
    x54       c6                            683
    x54       c7                            102
    x54       c39                           962
    x55       obj1                            1
    x55       c7                            248
    x55       c9                            981
    x55       c28                           319
    x55       c31                           801
    x56       obj1                            1
    x56       c3                            985
    x56       c29                           294
    x57       obj1                            1
    x57       c18                           487
    x57       c28                           735
    x57       c29                           361
    x57       c34                           886
    x58       obj1                            1
    x58       c12                           823
    x58       c14                           349
    x58       c21                           624
    x58       c32                           138
    x59       obj1                            1
    x59       c1                            229
    x59       c14                           437
    x59       c15                           411
    x59       c16                           870
    x59       c26                           809
    x59       c27                           625
    x60       obj1                            1
    x60       c20                           229
    x60       c23                           932
    x60       c24                           917
    x61       obj1                            1
    x61       c20                           667
    x61       c26                           805
    x62       obj1                            1
    x62       c1                            764
    x62       c3                            782
    x63       obj1                            1
    x63       c2                            209
    x63       c27                           651
    x63       c34                           355
    x63       c35                           425
    x63       c36                           983
    x63       c38                           221
    x64       obj1                            1
    x64       c5                            806
    x64       c16                           237
    x64       c26                           331
    x64       c32                           422
    x64       c39                           204
    x65       obj1                            1
    x65       c4                            580
    x65       c13                           170
    x65       c16                           714
    x65       c24                           922
    x65       c27                           849
    x65       c30                           179
    x65       c38                           341
    x66       obj1                            1
    x66       c12                           700
    x66       c13                           391
    x66       c16                           202
    x66       c30                           136
    x66       c38                           848
    x66       c40                           163
    x67       obj1                            1
    x67       c3                            122
    x67       c12                           720
    x67       c24                           910
    x68       obj1                            1
    x68       c3                            330
    x68       c19                           862
    x68       c34                           510
    x69       obj1                            1
    x69       c27                           384
    x70       obj1                            1
    x70       c11                           275
    x70       c14                           901
    x70       c17                           215
    x70       c24                           432
    x70       c28                           207
    x70       c31                           366
    x70       c35                           834
    x70       c38                           808
    x70       c39                           906
    x71       obj1                            1
    x71       c17                           210
    x71       c25                           870
    x71       c30                           370
    x71       c35                           427
    x71       c37                           487
    x72       obj1                            1
    x72       c2                            884
    x72       c24                           141
    x73       obj1                            1
    x73       c10                           260
    x73       c11                           376
    x73       c30                           901
    x73       c35                           831
    x73       c37                           936
    x74       obj1                            1
    x74       c2                            349
    x74       c3                            264
    x74       c9                            689
    x74       c11                           254
    x74       c28                           128
    x74       c32                           565
    x74       c35                           268
    x74       c37                           537
    x75       obj1                            1
    x75       c17                           299
    x75       c20                           263
    x75       c33                           146
    x75       c38                           885
    x76       obj1                            1
    x76       c5                            179
    x76       c27                           920
    x76       c28                           798
    x76       c32                           725
    x76       c35                           258
    x77       obj1                            1
    x77       c10                           639
    x77       c11                           628
    x77       c14                           777
    x77       c26                           499
    x77       c32                           118
    x77       c39                           410
    x77       c40                           394
    x78       obj1                            1
    x78       c9                            790
    x78       c24                           712
    x78       c39                           926
    x79       obj1                            1
    x79       c8                            408
    x79       c16                           570
    x79       c22                           825
    x79       c26                           702
    x79       c33                           290
    x79       c35                           403
    x79       c36                           143
    x80       obj1                            1
    x80       c10                           504
    x80       c11                           250
    MARK0001  'MARKER'                 'INTEND'
RHS
    rhs       c1                           1506
    rhs       c2                           3689
    rhs       c3                           1675
    rhs       c4                           1685
    rhs       c5                           2364
    rhs       c6                           1456
    rhs       c7                            389
    rhs       c8                           2943
    rhs       c9                           1945
    rhs       c10                          1880
    rhs       c11                          2541
    rhs       c12                          2764
    rhs       c13                          1059
    rhs       c14                          2703
    rhs       c15                          1830
    rhs       c16                          2535
    rhs       c17                          1973
    rhs       c18                          1782
    rhs       c19                          2498
    rhs       c20                          1827
    rhs       c21                          1491
    rhs       c22                          1133
    rhs       c23                          1208
    rhs       c24                          3290
    rhs       c25                          1322
    rhs       c26                          3192
    rhs       c27                          3646
    rhs       c28                          2265
    rhs       c29                          1502
    rhs       c30                          2179
    rhs       c31                          1492
    rhs       c32                          2243
    rhs       c33                           722
    rhs       c34                          1898
    rhs       c35                          2900
    rhs       c36                          1228
    rhs       c37                          2667
    rhs       c38                          2697
    rhs       c39                          2975
    rhs       c40                          2305
BOUNDS
 LI bnd       x1        0
 LI bnd       x2        0
 LI bnd       x3        0
 LI bnd       x4        0
 LI bnd       x5        0
 LI bnd       x6        0
 LI bnd       x7        0
 LI bnd       x8        0
 LI bnd       x9        0
 LI bnd       x10       0
 LI bnd       x11       0
 LI bnd       x12       0
 LI bnd       x13       0
 LI bnd       x14       0
 LI bnd       x15       0
 LI bnd       x16       0
 LI bnd       x17       0
 LI bnd       x18       0
 LI bnd       x19       0
 LI bnd       x20       0
 LI bnd       x21       0
 LI bnd       x22       0
 LI bnd       x23       0
 LI bnd       x24       0
 LI bnd       x25       0
 LI bnd       x26       0
 LI bnd       x27       0
 LI bnd       x28       0
 LI bnd       x29       0
 LI bnd       x30       0
 LI bnd       x31       0
 LI bnd       x32       0
 LI bnd       x33       0
 LI bnd       x34       0
 LI bnd       x35       0
 LI bnd       x36       0
 LI bnd       x37       0
 LI bnd       x38       0
 LI bnd       x39       0
 LI bnd       x40       0
 LI bnd       x41       0
 LI bnd       x42       0
 LI bnd       x43       0
 LI bnd       x44       0
 LI bnd       x45       0
 LI bnd       x46       0
 LI bnd       x47       0
 LI bnd       x48       0
 LI bnd       x49       0
 LI bnd       x50       0
 LI bnd       x51       0
 LI bnd       x52       0
 LI bnd       x53       0
 LI bnd       x54       0
 LI bnd       x55       0
 LI bnd       x56       0
 LI bnd       x57       0
 LI bnd       x58       0
 LI bnd       x59       0
 LI bnd       x60       0
 LI bnd       x61       0
 LI bnd       x62       0
 LI bnd       x63       0
 LI bnd       x64       0
 LI bnd       x65       0
 LI bnd       x66       0
 LI bnd       x67       0
 LI bnd       x68       0
 LI bnd       x69       0
 LI bnd       x70       0
 LI bnd       x71       0
 LI bnd       x72       0
 LI bnd       x73       0
 LI bnd       x74       0
 LI bnd       x75       0
 LI bnd       x76       0
 LI bnd       x77       0
 LI bnd       x78       0
 LI bnd       x79       0
 LI bnd       x80       0
ENDATA
